Ni1
1.0
   0.0000000000000000    1.7681537000000001    1.7681537000000001
   1.7681537000000001    0.0000000000000000    1.7681537000000001
   1.7681537000000001    1.7681537000000001    0.0000000000000000
Ni
1
direct
   0.0000000000000000    0.0000000000000000    0.0000000000000000 Ni
