Al4 Ni12
1.0
   1.7730905600000000    1.7949142199999999   -3.4793044599999998
   0.0257284700000000   -5.5727205700000004   -1.8172830200000001
  -7.2687627399999997    1.8811009500000000   -1.7845448500000001
Ni Al
12 4
direct
   0.2500000000000000    0.1875000000000000    0.3125000000000000 Ni
   0.2500000000000000    0.4375000000000000    0.0625000000000000 Ni
   0.5000000000000000    0.1250000000000000    0.8750000000000000 Ni
   0.5000000000000000    0.3750000000000000    0.6250000000000000 Ni
   0.5000000000000000    0.6250000000000000    0.3750000000000000 Ni
   0.5000000000000000    0.8750000000000000    0.1250000000000000 Ni
   0.7500000000000000    0.0625000000000000    0.4375000000000000 Ni
   0.7500000000000000    0.3125000000000000    0.1875000000000000 Ni
   0.7500000000000000    0.5625000000000000    0.9375000000000000 Ni
   0.7500000000000000    0.8125000000000000    0.6875000000000000 Ni
   0.0000000000000000    0.7500000000000000    0.2500000000000000 Ni
   0.0000000000000000    0.0000000000000000    0.0000000000000000 Ni
   0.2500000000000000    0.6875000000000000    0.8125000000000000 Al
   0.2500000000000000    0.9375000000000000    0.5625000000000000 Al
   0.0000000000000000    0.2500000000000000    0.7500000000000000 Al
   0.0000000000000000    0.5000000000000000    0.5000000000000000 Al
